unsat
(define-fun move ((currPoint Int) (o0 Int) (o1 Int)) Int (+ 1 (ite (= currPoint 0) 1 0)))
0.79user 0.01system 0:00.81elapsed 99%CPU (0avgtext+0avgdata 37540maxresident)k
0inputs+8outputs (0major+4134minor)pagefaults 0swaps
